63 100
10 8 3
5 6 1
2 3 1
10 10 1
8 8 1
2 2 3
6 2 3
6 10 2
9 2 2
8 5 1
9 3 1
1 2 3
5 9 1
8 7 1
8 2 1
8 3 3
3 2 2
2 4 1
6 8 2
3 6 2
10 5 3
10 3 2
5 8 1
10 9 1
5 1 1
5 5 2
7 5 1
10 4 1
10 2 2
1 8 1
2 10 2
8 10 1
4 8 1
2 8 3
1 7 2
8 4 2
4 6 1
6 7 2
1 10 1
10 7 3
7 7 1
7 8 1
4 9 3
5 3 2
1 1 1
4 3 1
2 1 2
2 6 2
9 1 1
6 4 1
3 7 3
1 9 1
3 5 2
2 5 1
8 1 1
7 10 1
6 5 1
4 7 1
3 9 2
9 10 1
4 5 1
9 9 1
8 6 1
10 10 
10 10 
10 10 
10 10 
10 10 
10 10 
10 10 
10 10 
10 10 
10 10 
10 10 
10 10 
10 10 
10 10 
10 10 
10 10 
10 10 
10 10 
10 10 
10 10 
10 10 
10 10 
10 10 
10 10 
10 10 
10 10 
10 10 
10 10 
10 10 
10 10 
10 10 
10 10 
10 10 
10 10 
10 10 
10 10 
10 10 
10 10 
10 10 
10 10 
10 10 
10 10 
10 10 
10 10 
10 10 
10 10 
10 10 
10 10 
10 10 
10 10 
10 10 
10 10 
10 10 
10 10 
10 10 
10 10 
10 10 
10 10 
10 10 
10 10 
10 10 
10 10 
10 10 
10 10 
10 10 
10 10 
10 10 
10 10 
10 10 
10 10 
10 10 
10 10 
10 10 
10 10 
10 10 
10 10 
10 10 
10 10 
10 10 
10 10 
10 10 
10 10 
10 10 
10 10 
10 10 
10 10 
10 10 
10 10 
10 10 
10 10 
10 10 
10 10 
10 10 
10 10 
10 10 
10 10 
10 10 
10 10 
10 10 
10 10 
